
n_res = 8;
rcap = [73, 69, 64, 67, 850, 857, 851, 855];
rtype = [1, 1, 1, 1, 2, 2, 2, 2];
n_tasks = 50;
modes =  [{1, 2, 3, 4, 5, 6}, {7, 8, 9, 10, 11, 12}, {13, 14, 15, 16, 17, 18}, {19, 20, 21, 22, 23, 24}, {25, 26, 27, 28, 29, 30}, {31, 32, 33, 34, 35, 36}, {37, 38, 39, 40, 41, 42}, {43, 44, 45, 46, 47, 48}, {49, 50, 51, 52, 53, 54}, {55, 56, 57, 58, 59, 60}, {61, 62, 63, 64, 65, 66}, {67, 68, 69, 70, 71, 72}, {73, 74, 75, 76, 77, 78}, {79, 80, 81, 82, 83, 84}, {85, 86, 87, 88, 89, 90}, {91, 92, 93, 94, 95, 96}, {97, 98, 99, 100, 101, 102}, {103, 104, 105, 106, 107, 108}, {109, 110, 111, 112, 113, 114}, {115, 116, 117, 118, 119, 120}, {121, 122, 123, 124, 125, 126}, {127, 128, 129, 130, 131, 132}, {133, 134, 135, 136, 137, 138}, {139, 140, 141, 142, 143, 144}, {145, 146, 147, 148, 149, 150}, {151, 152, 153, 154, 155, 156}, {157, 158, 159, 160, 161, 162}, {163, 164, 165, 166, 167, 168}, {169, 170, 171, 172, 173, 174}, {175, 176, 177, 178, 179, 180}, {181, 182, 183, 184, 185, 186}, {187, 188, 189, 190, 191, 192}, {193, 194, 195, 196, 197, 198}, {199, 200, 201, 202, 203, 204}, {205, 206, 207, 208, 209, 210}, {211, 212, 213, 214, 215, 216}, {217, 218, 219, 220, 221, 222}, {223, 224, 225, 226, 227, 228}, {229, 230, 231, 232, 233, 234}, {235, 236, 237, 238, 239, 240}, {241, 242, 243, 244, 245, 246}, {247, 248, 249, 250, 251, 252}, {253, 254, 255, 256, 257, 258}, {259, 260, 261, 262, 263, 264}, {265, 266, 267, 268, 269, 270}, {271, 272, 273, 274, 275, 276}, {277, 278, 279, 280, 281, 282}, {283, 284, 285, 286, 287, 288}, {289, 290, 291, 292, 293, 294}, {295, 296, 297, 298, 299, 300}];
succ =  [{18, 13, 12, 11, 10, 9, 8, 7}, {26, 15, 14, 13, 12, 11, 10, 9}, {18, 15, 14, 13, 12, 11, 7}, {18, 12, 10, 9, 8}, {26, 12, 11, 10, 9}, {26, 18, 15, 13, 9}, {26, 21, 20, 17, 16}, {26, 17, 16, 14}, {20, 19, 17, 16}, {22, 20, 17}, {22, 20, 17}, {21, 16}, {21, 16}, {28, 23, 19}, {36, 31, 23, 22}, {28, 23, 22}, {31, 28, 27, 24}, {36, 23, 22}, {36, 31, 27, 25}, {36, 23}, {24, 22}, {35, 27, 25}, {27, 24}, {25}, {38, 30, 29}, {42, 38, 34, 33}, {42, 38, 32}, {39, 36, 33}, {42, 32}, {42, 39, 37, 34}, {42, 35, 34}, {33}, {45, 41, 40, 37}, {50, 45, 43, 40}, {45, 38}, {50, 45, 44, 40}, {50, 49, 46, 43}, {50, 49, 46, 43}, {49, 46, 44}, {49, 48, 46}, {46, 44}, {49, 44}, {44}, {48, 47}, {48, 47}, {47}, {}, {}, {}, {}];
n_opt = 300;
dur = [8, 9, 18, 21, 26, 27, 9, 14, 15, 21, 26, 30, 1, 2, 5, 11, 18, 27, 2, 5, 6, 9, 11, 27, 6, 10, 14, 16, 17, 27, 1, 4, 5, 6, 17, 21, 4, 7, 11, 12, 28, 29, 2, 14, 17, 24, 25, 28, 7, 8, 11, 13, 27, 28, 2, 3, 22, 24, 25, 29, 8, 9, 10, 14, 21, 26, 3, 4, 5, 6, 11, 13, 5, 7, 12, 15, 21, 25, 1, 5, 9, 15, 18, 19, 5, 17, 18, 24, 25, 28, 3, 12, 14, 24, 26, 27, 4, 6, 9, 20, 21, 22, 4, 6, 8, 9, 19, 23, 2, 10, 17, 18, 20, 28, 1, 3, 5, 17, 18, 28, 1, 7, 14, 21, 24, 30, 8, 10, 11, 15, 27, 28, 9, 12, 23, 24, 27, 29, 2, 3, 10, 13, 15, 21, 4, 5, 11, 12, 15, 22, 11, 14, 17, 18, 26, 27, 13, 14, 16, 21, 23, 25, 9, 10, 19, 23, 24, 26, 5, 19, 27, 28, 29, 30, 3, 6, 16, 20, 21, 28, 2, 6, 7, 8, 13, 15, 7, 8, 18, 22, 24, 26, 4, 6, 7, 18, 19, 28, 1, 3, 4, 5, 10, 21, 6, 8, 22, 23, 24, 28, 3, 13, 21, 22, 23, 25, 15, 17, 19, 20, 23, 27, 9, 20, 21, 22, 25, 28, 3, 5, 11, 17, 19, 30, 11, 13, 17, 21, 23, 30, 13, 15, 16, 19, 21, 26, 4, 6, 14, 24, 27, 30, 4, 5, 8, 9, 14, 27, 10, 13, 15, 24, 28, 30, 3, 10, 13, 16, 24, 28, 12, 13, 14, 21, 23, 30, 2, 3, 5, 9, 10, 28, 10, 17, 19, 20, 26, 28, 1, 16, 20, 21, 23, 29, 3, 5, 7, 16, 22, 28];
rreq = [|25, 20, 19, 17, 14, 11, 21, 21, 21, 21, 21, 21, 21, 20, 18, 16, 13, 12, 8, 7, 7, 7, 6, 6, 26, 22, 21, 19, 15, 12, 30, 27, 26, 23, 22, 20, 16, 16, 15, 13, 13, 12, 26, 21, 21, 18, 13, 11, 17, 15, 15, 14, 12, 11, 28, 26, 23, 17, 15, 12, 24, 22, 20, 18, 16, 14, 25, 25, 24, 23, 22, 21, 28, 26, 24, 24, 22, 20, 19, 15, 15, 11, 8, 6, 15, 12, 11, 10, 6, 3, 17, 17, 12, 11, 9, 5, 14, 14, 14, 14, 14, 14, 24, 23, 20, 19, 17, 17, 4, 4, 4, 4, 4, 4, 11, 8, 8, 6, 4, 4, 22, 21, 18, 14, 14, 10, 12, 12, 8, 6, 4, 3, 25, 22, 18, 14, 12, 6, 25, 24, 21, 17, 14, 11, 14, 13, 13, 11, 11, 10, 13, 12, 9, 6, 6, 3, 28, 27, 27, 27, 27, 27, 26, 25, 25, 23, 23, 21, 24, 21, 20, 17, 13, 9, 25, 21, 20, 18, 15, 14, 25, 24, 18, 14, 7, 3, 25, 25, 20, 18, 12, 11, 21, 18, 18, 17, 14, 13, 23, 21, 20, 19, 19, 17, 13, 13, 12, 11, 10, 9, 8, 7, 7, 6, 6, 5, 17, 13, 11, 8, 5, 2, 5, 3, 3, 3, 1, 1, 26, 25, 24, 23, 22, 20, 11, 8, 8, 5, 4, 3, 6, 6, 6, 6, 5, 5, 16, 13, 12, 10, 9, 8, 20, 18, 16, 14, 9, 6, 12, 11, 10, 10, 10, 9, 23, 21, 21, 17, 14, 12, 23, 21, 20, 19, 18, 17, 27, 27, 26, 25, 23, 23, 27, 26, 25, 25, 24, 24, 23, 23, 21, 19, 18, 18, 11, 9, 9, 5, 4, 2
 |22, 19, 15, 12, 11, 7, 28, 26, 23, 20, 13, 12, 27, 24, 18, 15, 14, 9, 22, 22, 20, 18, 17, 17, 24, 22, 21, 19, 17, 16, 23, 20, 16, 15, 13, 10, 29, 25, 21, 15, 11, 9, 27, 24, 20, 19, 12, 9, 28, 27, 27, 25, 25, 23, 22, 19, 17, 12, 11, 9, 16, 15, 14, 13, 12, 12, 21, 20, 20, 19, 19, 19, 28, 27, 27, 25, 24, 24, 15, 14, 14, 13, 13, 13, 5, 5, 5, 5, 5, 5, 16, 14, 13, 11, 9, 8, 24, 20, 17, 13, 8, 7, 16, 15, 14, 14, 12, 12, 26, 25, 24, 19, 19, 14, 11, 9, 6, 4, 3, 1, 23, 23, 21, 18, 16, 14, 24, 22, 20, 18, 15, 12, 27, 26, 26, 25, 24, 24, 26, 19, 17, 15, 13, 10, 10, 10, 8, 7, 7, 6, 27, 21, 19, 16, 11, 5, 21, 20, 14, 13, 9, 5, 16, 16, 16, 16, 16, 16, 6, 5, 5, 4, 4, 3, 27, 27, 26, 26, 25, 25, 18, 16, 14, 14, 13, 12, 25, 25, 24, 24, 24, 23, 28, 28, 28, 27, 27, 27, 20, 19, 18, 18, 16, 16, 10, 9, 8, 7, 6, 6, 15, 12, 10, 9, 7, 4, 21, 18, 12, 9, 7, 3, 23, 22, 21, 21, 20, 19, 6, 5, 5, 3, 3, 1, 13, 11, 11, 7, 5, 3, 2, 1, 1, 1, 1, 1, 14, 12, 10, 9, 7, 5, 21, 19, 16, 13, 13, 11, 18, 17, 15, 13, 10, 7, 16, 15, 15, 15, 15, 15, 5, 5, 5, 4, 4, 3, 21, 20, 20, 18, 17, 17, 4, 3, 2, 2, 2, 1, 22, 20, 16, 16, 14, 10, 16, 13, 13, 9, 7, 5
 |9, 9, 9, 9, 9, 9, 8, 7, 6, 5, 5, 4, 17, 14, 13, 10, 10, 7, 20, 20, 20, 20, 20, 20, 20, 19, 19, 18, 17, 17, 28, 25, 23, 21, 19, 18, 29, 23, 21, 16, 10, 7, 24, 23, 23, 23, 23, 23, 10, 9, 8, 8, 7, 7, 16, 15, 13, 10, 9, 6, 19, 13, 13, 9, 5, 3, 20, 20, 18, 17, 16, 16, 19, 15, 11, 11, 7, 3, 22, 21, 17, 17, 15, 13, 15, 11, 11, 7, 5, 3, 13, 11, 9, 8, 8, 6, 20, 19, 19, 18, 17, 16, 16, 15, 14, 12, 11, 9, 6, 6, 6, 6, 5, 5, 25, 22, 17, 17, 12, 9, 13, 12, 9, 6, 5, 3, 22, 22, 21, 21, 19, 19, 28, 24, 24, 23, 19, 19, 28, 23, 19, 17, 12, 9, 15, 14, 13, 12, 11, 11, 25, 22, 21, 20, 18, 14, 5, 5, 4, 3, 3, 2, 24, 17, 14, 10, 8, 4, 20, 19, 19, 17, 17, 16, 24, 20, 20, 17, 15, 13, 14, 14, 14, 14, 13, 13, 29, 21, 19, 16, 7, 4, 30, 28, 26, 24, 20, 19, 17, 16, 11, 9, 8, 5, 22, 21, 18, 12, 11, 8, 19, 17, 16, 16, 12, 12, 13, 12, 11, 10, 9, 9, 17, 17, 17, 17, 17, 17, 21, 19, 16, 13, 10, 8, 18, 17, 17, 17, 17, 17, 9, 9, 9, 9, 9, 9, 12, 12, 12, 12, 12, 12, 25, 25, 25, 25, 25, 25, 20, 14, 11, 8, 6, 3, 27, 21, 20, 15, 11, 4, 20, 18, 17, 16, 16, 15, 23, 18, 17, 14, 12, 10, 24, 23, 22, 22, 22, 21, 7, 6, 5, 5, 3, 2, 19, 16, 14, 12, 12, 8
 |18, 16, 12, 11, 7, 5, 28, 26, 21, 18, 10, 8, 25, 24, 24, 24, 22, 22, 16, 15, 14, 12, 11, 10, 22, 21, 15, 15, 12, 8, 22, 19, 18, 16, 15, 13, 24, 21, 17, 15, 15, 11, 21, 19, 16, 13, 11, 9, 22, 19, 17, 10, 7, 4, 29, 26, 23, 22, 19, 18, 17, 16, 15, 14, 11, 10, 6, 4, 4, 2, 2, 1, 16, 13, 11, 8, 6, 4, 30, 25, 24, 21, 16, 14, 20, 18, 16, 13, 12, 11, 15, 15, 14, 14, 12, 12, 27, 26, 22, 20, 18, 15, 24, 22, 14, 12, 5, 1, 8, 7, 6, 5, 3, 3, 24, 23, 22, 22, 20, 19, 17, 14, 11, 10, 8, 4, 30, 29, 29, 29, 29, 29, 24, 20, 15, 13, 6, 6, 15, 15, 15, 14, 14, 14, 11, 10, 9, 8, 8, 7, 4, 4, 4, 4, 4, 4, 9, 8, 7, 5, 4, 3, 10, 8, 7, 6, 6, 5, 18, 17, 16, 14, 14, 12, 25, 24, 24, 23, 22, 21, 17, 15, 13, 12, 10, 10, 30, 23, 19, 14, 11, 8, 27, 26, 24, 24, 23, 22, 29, 23, 19, 15, 11, 3, 19, 18, 15, 12, 10, 9, 24, 21, 20, 18, 17, 16, 5, 5, 3, 2, 2, 1, 26, 24, 23, 23, 22, 21, 23, 22, 20, 15, 13, 12, 29, 26, 26, 23, 21, 21, 28, 27, 25, 24, 24, 23, 20, 20, 20, 20, 19, 19, 26, 22, 22, 18, 16, 12, 14, 12, 12, 10, 10, 8, 23, 21, 19, 18, 18, 16, 11, 11, 8, 6, 4, 3, 29, 28, 27, 26, 24, 22, 14, 14, 11, 11, 10, 7, 26, 26, 26, 26, 26, 26, 13, 12, 9, 7, 4, 3
 |25, 24, 19, 15, 12, 11, 22, 19, 19, 17, 16, 15, 6, 6, 6, 6, 6, 6, 17, 16, 12, 9, 4, 1, 24, 21, 18, 16, 14, 10, 24, 24, 24, 24, 24, 24, 17, 16, 16, 16, 15, 15, 18, 17, 15, 14, 14, 13, 23, 19, 15, 8, 5, 2, 24, 23, 19, 18, 16, 14, 25, 21, 19, 18, 15, 14, 9, 9, 8, 8, 6, 6, 10, 9, 8, 7, 6, 3, 16, 16, 15, 15, 13, 13, 12, 12, 10, 6, 4, 1, 14, 12, 12, 10, 9, 8, 19, 14, 12, 10, 9, 4, 19, 19, 13, 12, 9, 6, 18, 16, 16, 15, 14, 14, 10, 9, 9, 8, 8, 8, 30, 26, 25, 23, 19, 17, 20, 17, 15, 11, 9, 8, 12, 10, 9, 7, 5, 5, 24, 23, 19, 14, 11, 8, 29, 26, 21, 19, 15, 13, 26, 20, 19, 13, 10, 10, 24, 22, 21, 19, 18, 18, 21, 19, 19, 19, 17, 17, 21, 18, 15, 12, 9, 4, 20, 20, 20, 20, 20, 20, 11, 10, 8, 8, 7, 5, 14, 12, 12, 11, 11, 10, 16, 16, 16, 15, 15, 14, 18, 17, 16, 16, 15, 14, 26, 23, 22, 22, 20, 19, 15, 14, 13, 11, 11, 10, 8, 7, 6, 4, 4, 3, 21, 16, 14, 12, 9, 4, 28, 27, 27, 26, 24, 24, 20, 17, 16, 15, 13, 12, 24, 21, 18, 14, 12, 10, 27, 24, 23, 23, 20, 18, 18, 16, 14, 13, 11, 10, 21, 21, 21, 21, 21, 21, 9, 8, 7, 7, 5, 5, 21, 19, 18, 14, 10, 8, 17, 14, 10, 8, 4, 1, 24, 19, 18, 13, 13, 9, 16, 15, 15, 15, 15, 15, 23, 20, 20, 18, 17, 14
 |26, 21, 20, 15, 12, 11, 26, 23, 21, 17, 11, 11, 26, 24, 22, 20, 19, 16, 6, 6, 5, 3, 3, 2, 19, 15, 11, 8, 7, 1, 17, 13, 13, 10, 8, 7, 10, 10, 9, 7, 7, 5, 8, 7, 7, 7, 7, 7, 20, 19, 18, 17, 13, 12, 16, 16, 16, 16, 16, 16, 29, 27, 24, 24, 21, 20, 26, 18, 15, 10, 7, 4, 23, 19, 18, 11, 10, 6, 16, 15, 13, 13, 11, 10, 25, 23, 21, 19, 17, 13, 21, 16, 13, 9, 5, 4, 23, 22, 20, 15, 11, 10, 11, 9, 8, 7, 6, 6, 20, 19, 18, 17, 16, 14, 22, 17, 14, 13, 6, 3, 28, 27, 25, 22, 21, 19, 26, 24, 23, 22, 22, 20, 27, 21, 19, 15, 13, 9, 28, 25, 23, 21, 19, 15, 23, 22, 21, 19, 17, 16, 17, 17, 17, 16, 16, 16, 5, 5, 4, 4, 4, 3, 25, 22, 19, 14, 11, 6, 10, 9, 9, 9, 9, 9, 18, 17, 17, 16, 15, 15, 11, 9, 9, 7, 7, 6, 27, 22, 20, 18, 15, 13, 10, 10, 9, 9, 8, 7, 21, 19, 16, 13, 12, 11, 25, 23, 21, 20, 20, 18, 18, 16, 15, 14, 12, 11, 19, 19, 19, 19, 19, 19, 10, 7, 7, 5, 3, 1, 24, 24, 23, 22, 20, 20, 22, 17, 16, 12, 8, 5, 28, 27, 23, 21, 19, 19, 19, 15, 13, 10, 8, 3, 20, 14, 11, 11, 6, 3, 24, 24, 24, 24, 23, 23, 25, 24, 24, 23, 21, 21, 26, 26, 25, 25, 24, 23, 5, 5, 5, 5, 5, 5, 17, 13, 12, 9, 8, 3, 8, 8, 7, 5, 3, 3, 11, 10, 10, 10, 9, 9
 |21, 21, 21, 21, 21, 21, 26, 25, 23, 22, 22, 21, 18, 16, 15, 14, 12, 11, 19, 16, 13, 10, 7, 6, 28, 27, 27, 26, 26, 25, 24, 21, 17, 14, 12, 8, 26, 26, 24, 24, 22, 22, 9, 8, 8, 8, 7, 7, 27, 27, 27, 27, 27, 27, 24, 19, 15, 11, 9, 3, 18, 14, 11, 6, 3, 2, 5, 3, 3, 3, 2, 1, 7, 7, 7, 7, 7, 7, 21, 21, 21, 21, 21, 21, 18, 16, 14, 13, 11, 9, 8, 6, 5, 3, 2, 1, 25, 23, 23, 21, 18, 17, 25, 20, 16, 16, 12, 8, 17, 15, 9, 7, 3, 1, 21, 20, 20, 20, 19, 18, 20, 18, 16, 15, 13, 12, 24, 20, 16, 14, 11, 7, 19, 14, 13, 10, 5, 2, 21, 21, 21, 21, 20, 20, 1, 1, 1, 1, 1, 1, 19, 15, 13, 12, 9, 9, 18, 13, 12, 9, 6, 2, 25, 24, 23, 23, 21, 21, 18, 16, 12, 11, 8, 3, 27, 25, 22, 20, 20, 18, 23, 21, 17, 12, 9, 8, 25, 23, 23, 23, 22, 21, 12, 10, 9, 9, 7, 7, 25, 22, 17, 16, 11, 11, 29, 28, 27, 27, 26, 26, 16, 14, 12, 11, 7, 4, 25, 20, 18, 13, 9, 3, 21, 20, 18, 17, 15, 12, 29, 27, 25, 24, 23, 21, 24, 21, 20, 17, 13, 10, 8, 8, 8, 8, 8, 8, 9, 8, 8, 8, 7, 6, 13, 9, 8, 5, 3, 2, 27, 25, 22, 20, 18, 16, 27, 25, 25, 23, 23, 22, 23, 19, 12, 8, 8, 4, 2, 2, 2, 2, 2, 2, 7, 6, 4, 4, 3, 1, 14, 13, 12, 8, 6, 4, 19, 17, 17, 16, 16, 15
 |24, 22, 22, 19, 16, 15, 15, 14, 12, 10, 7, 6, 28, 27, 25, 24, 22, 22, 5, 4, 4, 2, 1, 1, 17, 13, 12, 10, 7, 6, 24, 20, 16, 14, 9, 7, 21, 19, 16, 14, 9, 9, 9, 7, 6, 5, 4, 4, 7, 7, 7, 7, 7, 7, 15, 14, 14, 13, 11, 11, 27, 26, 26, 26, 26, 26, 26, 26, 25, 24, 23, 22, 23, 22, 21, 21, 19, 19, 20, 17, 16, 14, 10, 5, 26, 24, 23, 17, 15, 11, 26, 24, 18, 18, 12, 9, 26, 26, 23, 21, 19, 19, 26, 24, 24, 23, 22, 22, 22, 19, 19, 16, 10, 7, 13, 11, 11, 10, 10, 9, 10, 9, 9, 8, 8, 7, 8, 7, 7, 6, 5, 3, 26, 21, 20, 16, 9, 6, 23, 20, 18, 16, 14, 13, 17, 17, 17, 17, 16, 16, 21, 21, 20, 20, 18, 18, 25, 25, 23, 23, 21, 21, 28, 25, 21, 14, 10, 5, 23, 19, 14, 11, 9, 7, 23, 19, 16, 16, 13, 11, 25, 23, 18, 17, 14, 10, 6, 6, 6, 6, 6, 6, 26, 25, 23, 19, 17, 14, 22, 20, 18, 17, 15, 13, 14, 14, 12, 12, 11, 10, 19, 16, 13, 11, 9, 5, 18, 16, 14, 12, 11, 10, 26, 21, 18, 12, 6, 4, 12, 10, 9, 7, 4, 3, 23, 21, 20, 18, 16, 12, 11, 9, 8, 8, 7, 6, 17, 16, 13, 12, 10, 10, 28, 24, 23, 19, 12, 11, 24, 24, 20, 18, 18, 14, 6, 5, 4, 4, 3, 2, 26, 19, 18, 12, 8, 5, 12, 11, 8, 5, 4, 3, 19, 19, 15, 9, 5, 3, 20, 19, 14, 13, 11, 5, 15, 14, 14, 13, 11, 11|];